10	5
0	4	2	4	1	3
1	3	9	6	7
2	2	6	5
3	3	6	10	5
4	4	8	9	10	7
5	3	9	8	7
6	1	11
7	1	11
8	2	11	1
9	1	11
10	1	11
11	0
0	0	0	0	0	0	0
1	4	3	3	2	2	1
2	1	1	5	4	2	2
3	1	5	1	2	4	5
4	9	4	5	1	1	2
5	7	3	5	4	3	5
6	6	3	2	5	2	2
7	5	4	5	1	1	4
8	5	2	2	2	1	3
9	9	2	1	3	1	5
10	2	1	1	5	4	1
11	0	0	0	0	0	0
5	5	5	5	5
